
Gurobi 12.0.2 (win64) logging started Thu Jun  5 15:47:55 2025

Set parameter LogFile to value "C:\Ioana\_uni\honours\slp\algorithm\Main_files\results\others\neuro_new\Task_001_Sample002_irr_gurobi.log"
Gurobi Optimizer version 12.0.2 build v12.0.2rc0 (win64 - Windows 11.0 (26100.2))

CPU model: Intel(R) Core(TM) Ultra 5 125H, instruction set [SSE2|AVX|AVX2]
Thread count: 14 physical cores, 18 logical processors, using up to 18 threads

Non-default parameters:
TimeLimit  2200

Optimize a model with 47226 rows, 34498 columns and 146685 nonzeros
Model fingerprint: 0xe06b337f
Variable types: 17253 continuous, 17245 integer (17245 binary)
Coefficient statistics:
  Matrix range     [1e-04, 8e+04]
  Objective range  [4e-05, 1e+01]
  Bounds range     [1e+00, 1e+03]
  RHS range        [1e+00, 1e+00]
Presolve removed 24671 rows and 17925 columns
Presolve time: 0.18s

Explored 0 nodes (0 simplex iterations) in 0.21 seconds (0.18 work units)
Thread count was 1 (of 18 available processors)

Solution count 0

Solve interrupted
Best objective -, best bound -, gap -
